Rodando pra 1h
Optimize a model with 164 rows, 230 columns and 873 nonzeros
Coefficient statistics:
  Matrix range    [1e+00, 1e+06]
  Objective range [2e-01, 2e-01]
  Bounds range    [1e+00, 1e+06]
  RHS range       [1e+00, 4e+00]
Presolve time: 0.00s
Presolved: 164 rows, 230 columns, 873 nonzeros
Variable types: 120 continuous, 110 integer (110 binary)

Root relaxation: objective 0.000000e+00, 71 iterations, 0.00 seconds

    Nodes    |    Current Node    |     Objective Bounds      |     Work
 Expl Unexpl |  Obj  Depth IntInf | Incumbent    BestBd   Gap | It/Node Time

     0     0    0.00000    0   31          -    0.00000      -     -    0s
     0     0    1.28782    0   50          -    1.28782      -     -    0s
     0     0    1.28782    0   50          -    1.28782      -     -    0s
     0     0   30.99240    0   54          -   30.99240      -     -    0s
     0     0   31.32565    0   49          -   31.32565      -     -    0s
     0     0   35.04688    0   55          -   35.04688      -     -    0s
     0     0   39.64023    0   54          -   39.64023      -     -    0s
     0     0   41.67884    0   51          -   41.67884      -     -    0s
     0     0   42.91797    0   50          -   42.91797      -     -    0s
     0     0   42.95858    0   53          -   42.95858      -     -    0s
     0     0   42.96912    0   51          -   42.96912      -     -    0s
     0     0   43.03198    0   49          -   43.03198      -     -    0s
     0     0   43.04452    0   49          -   43.04452      -     -    0s
     0     0   43.07595    0   51          -   43.07595      -     -    0s
     0     0   43.07595    0   48          -   43.07595      -     -    0s
     0     2   43.07595    0   48          -   43.07595      -     -    0s
* 6178  2905              42     270.5005410  131.00026  51.6%   9.8    2s
 10203  4375  170.00034   36   48  270.50054  134.16694  50.4%  10.1    6s
 10295  4436  243.00049   28   53  270.50054  134.16694  50.4%  10.0   10s
 10402  4508  220.00044   47   52  270.50054  134.16694  50.4%   9.9   15s
H10594  4322                     142.6669520  134.16694  5.96%  13.8   16s

Cutting planes:
  Gomory: 2
  Implied bound: 9
  MIR: 103
  Flow cover: 142
  Flow path: 2
  Zero half: 3
  Network: 1

Explored 12567 nodes (196553 simplex iterations) in 18.55 seconds
Thread count was 1 (of 4 available processors)

Optimal solution found (tolerance 1.00e-04)
Best objective 1.426669520000e+02, best bound 1.426669520000e+02, gap 0.0%
Tempo: 18.21 segundos

0 2 0 56 76 17 79 26 30 26 71 6 
0 3 22 70 30 55 6 40 78 10 32 42 
1 3 0 76 0 78 14 12 64 42 12 6 
1 4 72 36 15 48 32 49 71 20 20 90 
(94 238 121 198 131 127 243 98 135 144 )

